WARNING: for repeatability, setting FPU to use double precision
============================[ Problem Statistics ]=============================
|                                                                             |
|  Number of variables:           100                                         |
|  Number of clauses:             449                                         |
|  Parse time:                   0.00 s                                       |
|  Simplification time:          0.00 s                                       |
|                                                                             |
============================[ Search Statistics ]==============================
| Conflicts |          ORIGINAL         |          LEARNT          | Progress |
|           |    Vars  Clauses Literals |    Limit  Clauses Lit/Cl |          |
===============================================================================
|       100 |     100      448     1343 |      164      100      8 |  0.010 % |
|       250 |     100      448     1343 |      180      167      6 |  0.040 % |
===============================================================================
restarts              : 4
conflicts             : 461            (374797 /sec)
decisions             : 552            (0.00 % random) (448780 /sec)
propagations          : 10456          (8500813 /sec)
conflict literals     : 2833           (21.17 % deleted)
Memory used           : 13.00 MB
CPU time              : 0.00123 s

SATISFIABLE
